12 16 6 10
7 13 12 19 12 12 4 2 6 12 8 4 16 3 6 13 
5.65 7.82 0.76 1.3 6.34 7.81 6.32 2.2 2.8 1.43 2.14 3.86 4.18 3.34 2.32 2.08 
5.86 2.32 3.81 2.82 6.9 1.06 1.96 3.01 4.06 6.56 6.04 5.93 1.52 2.98 6.79 6.33 
7.56 1.16 2.07 2.72 5.28 7.08 7.91 1.37 0.98 1.66 3.07 3.95 5.64 4.13 2.89 4.55 
5.12 4.53 3.48 6.2 7.01 1.75 0.32 4.45 7.2 1.97 2.33 4.02 0.77 3.11 4.97 0.34 
0.02 0.33 2.35 4.55 5.82 2.84 4.1 3.6 2.77 6.4 4.88 1.32 7.6 3.25 6.26 7.72 
7.16 4.67 4.62 6.85 3.64 1.45 5.67 6.15 4.52 5.68 4.38 3.88 4.51 6.8 7.24 5.02 
4 4 4 4 4 4 4 4 4 4 4 4 4 4 4 4 
3.83 1.52 7.74 0.13 3.49 1.95 5.42 1.4 7.99 4.26 0.62 7.42 7.75 1.32 4.04 5.7 
4.12 3.4 4.35 0.06 7.43 6.85 1.64 1.05 7.41 4.29 5.13 7.3 4.16 0.74 1.8 7.43 
0.49 7.38 4.45 3.64 4.49 4.49 1.64 1.55 0.79 6.14 3.24 2.64 2.06 6.08 2.02 3.86 
4.04 1.66 3.28 4.66 3.39 4.67 1.61 4.01 3.4 1.52 3.97 5.89 7.03 3.84 5.61 6.33 
6.86 3.7 3.39 7.37 2.81 6.42 6.43 6.04 2.44 7.59 0.18 6.75 3.29 6.78 5.87 1.16 
1 1 1 1 1 1 1 1 1 1 1 1 1 1 1 1 
1 1 1 1 1 1 1 1 1 1 1 1 1 1 1 1 
1 1 1 1 1 1 1 1 1 1 1 1 1 1 1 1 
1 1 1 1 1 1 1 1 1 1 1 1 1 1 1 1 
1 1 1 1 1 1 1 1 1 1 1 1 1 1 1 1 
1 1 1 1 1 1 1 1 1 1 1 1 1 1 1 1 
1 1 1 1 1 1 1 1 1 1 1 1 1 1 1 1 
1 1 1 1 1 1 1 1 1 1 1 1 1 1 1 1 
1 1 1 1 1 1 1 1 1 1 1 1 1 1 1 1 
1 1 1 1 1 1 1 1 1 1 1 1 1 1 1 1 
1 1 1 1 1 1 1 1 1 1 1 1 1 1 1 1 
1 1 1 1 1 1 1 1 1 1 1 1 1 1 1 1 
0.01 0.01 0.01 0.01 0.01 0.01 0.01 0.01 0.01 0.01 0.01 0.01 0.01 0.01 0.01 0.01 
0.02 0.02 0.02 0.02 0.02 0.02 0.02 0.02 0.02 0.02 0.02 0.02 0.02 0.02 0.02 0.02 
0.03 0.03 0.03 0.03 0.03 0.03 0.03 0.03 0.03 0.03 0.03 0.03 0.03 0.03 0.03 0.03 
0.04 0.04 0.04 0.04 0.04 0.04 0.04 0.04 0.04 0.04 0.04 0.04 0.04 0.04 0.04 0.04 
0.05 0.05 0.05 0.05 0.05 0.05 0.05 0.05 0.05 0.05 0.05 0.05 0.05 0.05 0.05 0.05 
0.06 0.06 0.06 0.06 0.06 0.06 0.06 0.06 0.06 0.06 0.06 0.06 0.06 0.06 0.06 0.06 
0.07 0.07 0.07 0.07 0.07 0.07 0.07 0.07 0.07 0.07 0.07 0.07 0.07 0.07 0.07 0.07 
0.2 0.2 0.2 0.2 0.2 0.2 0.2 0.2 0.2 0.2 0.2 0.2 0.2 0.2 0.2 0.2 
0.4 0.4 0.4 0.4 0.4 0.4 0.4 0.4 0.4 0.4 0.4 0.4 0.4 0.4 0.4 0.4 
0.6 0.6 0.6 0.6 0.6 0.6 0.6 0.6 0.6 0.6 0.6 0.6 0.6 0.6 0.6 0.6 
0.8 0.8 0.8 0.8 0.8 0.8 0.8 0.8 0.8 0.8 0.8 0.8 0.8 0.8 0.8 0.8 
1 1 1 1 1 1 1 1 1 1 1 1 1 1 1 1 
